0000000000000000
0000000000000000
0000000000000000
0000000000000000
0000000000000000
0000000000000000
0000001000000000
0000010011100000
0000100000000000
0000100000000000
0000100000000000
0000100000000000
0000000000000000
0000011000000000
0000000000000000
0000000000000000
